data/lp_files/q3/58_9.lp
\ Model foo
\ LP format - for model browsing. Use MPS format to capture full model detail.
Minimize
  z
Subject To
 allocateEach[1]: x[1,1] + x[2,1] + x[3,1] = 1
 allocateEach[2]: x[1,2] + x[2,2] + x[3,2] = 1
 allocateEach[3]: x[1,3] + x[2,3] + x[3,3] = 1
 allocateEach[4]: x[1,4] + x[2,4] + x[3,4] = 1
 allocateEach[5]: x[1,5] + x[2,5] + x[3,5] = 1
 allocateEach[6]: x[1,6] + x[2,6] + x[3,6] = 1
 allocateEach[7]: x[1,7] + x[2,7] + x[3,7] = 1
 allocateEach[8]: x[1,8] + x[2,8] + x[3,8] = 1
 allocateEach[9]: x[1,9] + x[2,9] + x[3,9] = 1
 allocateEach[10]: x[1,10] + x[2,10] + x[3,10] = 1
 allocateEach[11]: x[1,11] + x[2,11] + x[3,11] = 1
 allocateEach[12]: x[1,12] + x[2,12] + x[3,12] = 1
 allocateEach[13]: x[1,13] + x[2,13] + x[3,13] = 1
 allocateEach[14]: x[1,14] + x[2,14] + x[3,14] = 1
 allocateEach[15]: x[1,15] + x[2,15] + x[3,15] = 1
 allocateEach[16]: x[1,16] + x[2,16] + x[3,16] = 1
 allocateEach[17]: x[1,17] + x[2,17] + x[3,17] = 1
 allocateEach[18]: x[1,18] + x[2,18] + x[3,18] = 1
 allocateAllCash: cashProportion[1] + cashProportion[2] + cashProportion[3]
   = 1
 findWorstP[1,2]: z + 0.1008857771231412 cashProportion[1]
   - 0.1008857771231412 cashProportion[2] + 0.081929339601703 x[1,1]
   + 0.05671798389863 x[1,2] + 0.0685720627105991 x[1,3]
   + 0.052319364016061 x[1,4] + 0.0249994955711144 x[1,5]
   + 0.1004822340146486 x[1,6] + 0.0279554488408224 x[1,7]
   + 0.0957708682229979 x[1,8] + 0.0463065716995218 x[1,9]
   + 0.0337765581808277 x[1,10] + 0.0464175460543573 x[1,11]
   + 0.0109763725509978 x[1,12] + 0.0130445309820222 x[1,13]
   + 0.0518653780190069 x[1,14] + 0.0550937228869474 x[1,15]
   + 0.00759669901737253 x[1,16] + 0.0647081374467827 x[1,17]
   + 0.0605819091624463 x[1,18] - 0.081929339601703 x[2,1]
   - 0.05671798389863 x[2,2] - 0.0685720627105991 x[2,3]
   - 0.052319364016061 x[2,4] - 0.0249994955711144 x[2,5]
   - 0.1004822340146486 x[2,6] - 0.0279554488408224 x[2,7]
   - 0.0957708682229979 x[2,8] - 0.0463065716995218 x[2,9]
   - 0.0337765581808277 x[2,10] - 0.0464175460543573 x[2,11]
   - 0.0109763725509978 x[2,12] - 0.0130445309820222 x[2,13]
   - 0.0518653780190069 x[2,14] - 0.0550937228869474 x[2,15]
   - 0.00759669901737253 x[2,16] - 0.0647081374467827 x[2,17]
   - 0.0605819091624463 x[2,18] >= 0
 findWorstP[1,3]: z + 0.1008857771231412 cashProportion[1]
   - 0.1008857771231412 cashProportion[3] + 0.081929339601703 x[1,1]
   + 0.05671798389863 x[1,2] + 0.0685720627105991 x[1,3]
   + 0.052319364016061 x[1,4] + 0.0249994955711144 x[1,5]
   + 0.1004822340146486 x[1,6] + 0.0279554488408224 x[1,7]
   + 0.0957708682229979 x[1,8] + 0.0463065716995218 x[1,9]
   + 0.0337765581808277 x[1,10] + 0.0464175460543573 x[1,11]
   + 0.0109763725509978 x[1,12] + 0.0130445309820222 x[1,13]
   + 0.0518653780190069 x[1,14] + 0.0550937228869474 x[1,15]
   + 0.00759669901737253 x[1,16] + 0.0647081374467827 x[1,17]
   + 0.0605819091624463 x[1,18] - 0.081929339601703 x[3,1]
   - 0.05671798389863 x[3,2] - 0.0685720627105991 x[3,3]
   - 0.052319364016061 x[3,4] - 0.0249994955711144 x[3,5]
   - 0.1004822340146486 x[3,6] - 0.0279554488408224 x[3,7]
   - 0.0957708682229979 x[3,8] - 0.0463065716995218 x[3,9]
   - 0.0337765581808277 x[3,10] - 0.0464175460543573 x[3,11]
   - 0.0109763725509978 x[3,12] - 0.0130445309820222 x[3,13]
   - 0.0518653780190069 x[3,14] - 0.0550937228869474 x[3,15]
   - 0.00759669901737253 x[3,16] - 0.0647081374467827 x[3,17]
   - 0.0605819091624463 x[3,18] >= 0
 findWorstP[2,1]: z - 0.1073445114751283 cashProportion[1]
   + 0.1073445114751283 cashProportion[2] - 0.0310332982674596 x[1,1]
   - 0.1035230468666137 x[1,2] - 0.0854891689387922 x[1,3]
   - 0.00531355331801885 x[1,4] - 0.0416496704523498 x[1,5]
   - 0.00846948195538762 x[1,6] - 0.0385581485218661 x[1,7]
   - 0.0236265269756757 x[1,8] - 0.0808089482384766 x[1,9]
   - 0.0352412031172846 x[1,10] - 0.00866270207604285 x[1,11]
   - 0.0696880568496533 x[1,12] - 0.0640954078017991 x[1,13]
   - 0.00463728289572554 x[1,14] - 0.0636552953047511 x[1,15]
   - 0.0362395070740033 x[1,16] - 0.1011614676141609 x[1,17]
   - 0.090802722256811 x[1,18] + 0.0310332982674596 x[2,1]
   + 0.1035230468666137 x[2,2] + 0.0854891689387922 x[2,3]
   + 0.00531355331801885 x[2,4] + 0.0416496704523498 x[2,5]
   + 0.00846948195538762 x[2,6] + 0.0385581485218661 x[2,7]
   + 0.0236265269756757 x[2,8] + 0.0808089482384766 x[2,9]
   + 0.0352412031172846 x[2,10] + 0.00866270207604285 x[2,11]
   + 0.0696880568496533 x[2,12] + 0.0640954078017991 x[2,13]
   + 0.00463728289572554 x[2,14] + 0.0636552953047511 x[2,15]
   + 0.0362395070740033 x[2,16] + 0.1011614676141609 x[2,17]
   + 0.090802722256811 x[2,18] >= 0
 findWorstP[2,3]: z + 0.1073445114751283 cashProportion[2]
   - 0.1073445114751283 cashProportion[3] + 0.0310332982674596 x[2,1]
   + 0.1035230468666137 x[2,2] + 0.0854891689387922 x[2,3]
   + 0.00531355331801885 x[2,4] + 0.0416496704523498 x[2,5]
   + 0.00846948195538762 x[2,6] + 0.0385581485218661 x[2,7]
   + 0.0236265269756757 x[2,8] + 0.0808089482384766 x[2,9]
   + 0.0352412031172846 x[2,10] + 0.00866270207604285 x[2,11]
   + 0.0696880568496533 x[2,12] + 0.0640954078017991 x[2,13]
   + 0.00463728289572554 x[2,14] + 0.0636552953047511 x[2,15]
   + 0.0362395070740033 x[2,16] + 0.1011614676141609 x[2,17]
   + 0.090802722256811 x[2,18] - 0.0310332982674596 x[3,1]
   - 0.1035230468666137 x[3,2] - 0.0854891689387922 x[3,3]
   - 0.00531355331801885 x[3,4] - 0.0416496704523498 x[3,5]
   - 0.00846948195538762 x[3,6] - 0.0385581485218661 x[3,7]
   - 0.0236265269756757 x[3,8] - 0.0808089482384766 x[3,9]
   - 0.0352412031172846 x[3,10] - 0.00866270207604285 x[3,11]
   - 0.0696880568496533 x[3,12] - 0.0640954078017991 x[3,13]
   - 0.00463728289572554 x[3,14] - 0.0636552953047511 x[3,15]
   - 0.0362395070740033 x[3,16] - 0.1011614676141609 x[3,17]
   - 0.090802722256811 x[3,18] >= 0
 findWorstP[3,1]: z - 0.105000105000105 cashProportion[1]
   + 0.105000105000105 cashProportion[3] - 0.0376950376950377 x[1,1]
   - 0.0336735336735337 x[1,2] - 0.0763035763035763 x[1,3]
   - 0.0673155673155673 x[1,4] - 0.1043176043176043 x[1,5]
   - 0.0757680757680758 x[1,6] - 0.0689220689220689 x[1,7]
   - 0.0162330162330162 x[1,8] - 0.00958650958650959 x[1,9]
   - 0.0670950670950671 x[1,10] - 0.0978075978075978 x[1,11]
   - 0.0150570150570151 x[1,12] - 0.0819420819420819 x[1,13]
   - 0.0122535122535123 x[1,14] - 0.0555765555765556 x[1,15]
   - 0.0211155211155211 x[1,16] - 0.00835800835800836 x[1,17]
   - 0.045979545979546 x[1,18] + 0.0376950376950377 x[3,1]
   + 0.0336735336735337 x[3,2] + 0.0763035763035763 x[3,3]
   + 0.0673155673155673 x[3,4] + 0.1043176043176043 x[3,5]
   + 0.0757680757680758 x[3,6] + 0.0689220689220689 x[3,7]
   + 0.0162330162330162 x[3,8] + 0.00958650958650959 x[3,9]
   + 0.0670950670950671 x[3,10] + 0.0978075978075978 x[3,11]
   + 0.0150570150570151 x[3,12] + 0.0819420819420819 x[3,13]
   + 0.0122535122535123 x[3,14] + 0.0555765555765556 x[3,15]
   + 0.0211155211155211 x[3,16] + 0.00835800835800836 x[3,17]
   + 0.045979545979546 x[3,18] >= 0
 findWorstP[3,2]: z - 0.105000105000105 cashProportion[2]
   + 0.105000105000105 cashProportion[3] - 0.0376950376950377 x[2,1]
   - 0.0336735336735337 x[2,2] - 0.0763035763035763 x[2,3]
   - 0.0673155673155673 x[2,4] - 0.1043176043176043 x[2,5]
   - 0.0757680757680758 x[2,6] - 0.0689220689220689 x[2,7]
   - 0.0162330162330162 x[2,8] - 0.00958650958650959 x[2,9]
   - 0.0670950670950671 x[2,10] - 0.0978075978075978 x[2,11]
   - 0.0150570150570151 x[2,12] - 0.0819420819420819 x[2,13]
   - 0.0122535122535123 x[2,14] - 0.0555765555765556 x[2,15]
   - 0.0211155211155211 x[2,16] - 0.00835800835800836 x[2,17]
   - 0.045979545979546 x[2,18] + 0.0376950376950377 x[3,1]
   + 0.0336735336735337 x[3,2] + 0.0763035763035763 x[3,3]
   + 0.0673155673155673 x[3,4] + 0.1043176043176043 x[3,5]
   + 0.0757680757680758 x[3,6] + 0.0689220689220689 x[3,7]
   + 0.0162330162330162 x[3,8] + 0.00958650958650959 x[3,9]
   + 0.0670950670950671 x[3,10] + 0.0978075978075978 x[3,11]
   + 0.0150570150570151 x[3,12] + 0.0819420819420819 x[3,13]
   + 0.0122535122535123 x[3,14] + 0.0555765555765556 x[3,15]
   + 0.0211155211155211 x[3,16] + 0.00835800835800836 x[3,17]
   + 0.045979545979546 x[3,18] >= 0
Bounds
 z <= 1
 -infinity <= cashProportion[1] <= 1
 -infinity <= cashProportion[2] <= 1
 -infinity <= cashProportion[3] <= 1
Binaries
 x[1,1] x[1,2] x[1,3] x[1,4] x[1,5] x[1,6] x[1,7] x[1,8] x[1,9] x[1,10]
 x[1,11] x[1,12] x[1,13] x[1,14] x[1,15] x[1,16] x[1,17] x[1,18] x[2,1]
 x[2,2] x[2,3] x[2,4] x[2,5] x[2,6] x[2,7] x[2,8] x[2,9] x[2,10] x[2,11]
 x[2,12] x[2,13] x[2,14] x[2,15] x[2,16] x[2,17] x[2,18] x[3,1] x[3,2]
 x[3,3] x[3,4] x[3,5] x[3,6] x[3,7] x[3,8] x[3,9] x[3,10] x[3,11] x[3,12]
 x[3,13] x[3,14] x[3,15] x[3,16] x[3,17] x[3,18]
End
