data/mps_files/q3/58_9.mps
NAME foo
ROWS
 N  OBJ
 E  allocateEach[1]
 E  allocateEach[2]
 E  allocateEach[3]
 E  allocateEach[4]
 E  allocateEach[5]
 E  allocateEach[6]
 E  allocateEach[7]
 E  allocateEach[8]
 E  allocateEach[9]
 E  allocateEach[10]
 E  allocateEach[11]
 E  allocateEach[12]
 E  allocateEach[13]
 E  allocateEach[14]
 E  allocateEach[15]
 E  allocateEach[16]
 E  allocateEach[17]
 E  allocateEach[18]
 E  allocateAllCash
 G  findWorstP[1,2]
 G  findWorstP[1,3]
 G  findWorstP[2,1]
 G  findWorstP[2,3]
 G  findWorstP[3,1]
 G  findWorstP[3,2]
COLUMNS
    z         OBJ       1
    z         findWorstP[1,2]  1
    z         findWorstP[1,3]  1
    z         findWorstP[2,1]  1
    z         findWorstP[2,3]  1
    z         findWorstP[3,1]  1
    z         findWorstP[3,2]  1
    cashProportion[1]  allocateAllCash  1
    cashProportion[1]  findWorstP[1,2]  1.0088577712314120e-01
    cashProportion[1]  findWorstP[1,3]  1.0088577712314120e-01
    cashProportion[1]  findWorstP[2,1]  -1.0734451147512832e-01
    cashProportion[1]  findWorstP[3,1]  -1.0500010500010501e-01
    cashProportion[2]  allocateAllCash  1
    cashProportion[2]  findWorstP[1,2]  -1.0088577712314120e-01
    cashProportion[2]  findWorstP[2,1]  1.0734451147512832e-01
    cashProportion[2]  findWorstP[2,3]  1.0734451147512832e-01
    cashProportion[2]  findWorstP[3,2]  -1.0500010500010501e-01
    cashProportion[3]  allocateAllCash  1
    cashProportion[3]  findWorstP[1,3]  -1.0088577712314120e-01
    cashProportion[3]  findWorstP[2,3]  -1.0734451147512832e-01
    cashProportion[3]  findWorstP[3,1]  1.0500010500010501e-01
    cashProportion[3]  findWorstP[3,2]  1.0500010500010501e-01
    MARKER    'MARKER'                 'INTORG'
    x[1,1]    allocateEach[1]  1
    x[1,1]    findWorstP[1,2]  8.1929339601702955e-02
    x[1,1]    findWorstP[1,3]  8.1929339601702955e-02
    x[1,1]    findWorstP[2,1]  -3.1033298267459590e-02
    x[1,1]    findWorstP[3,1]  -3.7695037695037688e-02
    x[1,2]    allocateEach[2]  1
    x[1,2]    findWorstP[1,2]  5.6717983898629969e-02
    x[1,2]    findWorstP[1,3]  5.6717983898629969e-02
    x[1,2]    findWorstP[2,1]  -1.0352304686661372e-01
    x[1,2]    findWorstP[3,1]  -3.3673533673533665e-02
    x[1,3]    allocateEach[3]  1
    x[1,3]    findWorstP[1,2]  6.8572062710599055e-02
    x[1,3]    findWorstP[1,3]  6.8572062710599055e-02
    x[1,3]    findWorstP[2,1]  -8.5489168938792173e-02
    x[1,3]    findWorstP[3,1]  -7.6303576303576287e-02
    x[1,4]    allocateEach[4]  1
    x[1,4]    findWorstP[1,2]  5.2319364016061007e-02
    x[1,4]    findWorstP[1,3]  5.2319364016061007e-02
    x[1,4]    findWorstP[2,1]  -0.00531355331801885
    x[1,4]    findWorstP[3,1]  -0.0673155673155673
    x[1,5]    allocateEach[5]  1
    x[1,5]    findWorstP[1,2]  2.4999495571114382e-02
    x[1,5]    findWorstP[1,3]  2.4999495571114382e-02
    x[1,5]    findWorstP[2,1]  -4.1649670452349775e-02
    x[1,5]    findWorstP[3,1]  -1.0431760431760430e-01
    x[1,6]    allocateEach[6]  1
    x[1,6]    findWorstP[1,2]  1.0048223401464861e-01
    x[1,6]    findWorstP[1,3]  1.0048223401464861e-01
    x[1,6]    findWorstP[2,1]  -8.4694819553876224e-03
    x[1,6]    findWorstP[3,1]  -7.5768075768075760e-02
    x[1,7]    allocateEach[7]  1
    x[1,7]    findWorstP[1,2]  2.7955448840822419e-02
    x[1,7]    findWorstP[1,3]  2.7955448840822419e-02
    x[1,7]    findWorstP[2,1]  -3.8558148521866085e-02
    x[1,7]    findWorstP[3,1]  -6.8922068922068910e-02
    x[1,8]    allocateEach[8]  1
    x[1,8]    findWorstP[1,2]  9.5770868222997921e-02
    x[1,8]    findWorstP[1,3]  9.5770868222997921e-02
    x[1,8]    findWorstP[2,1]  -2.3626526975675737e-02
    x[1,8]    findWorstP[3,1]  -1.6233016233016227e-02
    x[1,9]    allocateEach[9]  1
    x[1,9]    findWorstP[1,2]  0.0463065716995218
    x[1,9]    findWorstP[1,3]  0.0463065716995218
    x[1,9]    findWorstP[2,1]  -8.0808948238476577e-02
    x[1,9]    findWorstP[3,1]  -9.5865095865095857e-03
    x[1,10]   allocateEach[10]  1
    x[1,10]   findWorstP[1,2]  3.3776558180827664e-02
    x[1,10]   findWorstP[1,3]  3.3776558180827664e-02
    x[1,10]   findWorstP[2,1]  -3.5241203117284611e-02
    x[1,10]   findWorstP[3,1]  -6.7095067095067087e-02
    x[1,11]   allocateEach[11]  1
    x[1,11]   findWorstP[1,2]  4.6417546054357252e-02
    x[1,11]   findWorstP[1,3]  4.6417546054357252e-02
    x[1,11]   findWorstP[2,1]  -8.6627020760428521e-03
    x[1,11]   findWorstP[3,1]  -9.7807597807597790e-02
    x[1,12]   allocateEach[12]  1
    x[1,12]   findWorstP[1,2]  1.0976372550997759e-02
    x[1,12]   findWorstP[1,3]  1.0976372550997759e-02
    x[1,12]   findWorstP[2,1]  -6.9688056849653290e-02
    x[1,12]   findWorstP[3,1]  -1.5057015057015054e-02
    x[1,13]   allocateEach[13]  1
    x[1,13]   findWorstP[1,2]  1.3044530982022153e-02
    x[1,13]   findWorstP[1,3]  1.3044530982022153e-02
    x[1,13]   findWorstP[2,1]  -6.4095407801799092e-02
    x[1,13]   findWorstP[3,1]  -8.1942081942081926e-02
    x[1,14]   allocateEach[14]  1
    x[1,14]   findWorstP[1,2]  5.1865378019006876e-02
    x[1,14]   findWorstP[1,3]  5.1865378019006876e-02
    x[1,14]   findWorstP[2,1]  -4.6372828957255419e-03
    x[1,14]   findWorstP[3,1]  -1.2253512253512251e-02
    x[1,15]   allocateEach[15]  1
    x[1,15]   findWorstP[1,2]  5.5093722886947395e-02
    x[1,15]   findWorstP[1,3]  5.5093722886947395e-02
    x[1,15]   findWorstP[2,1]  -6.3655295304751072e-02
    x[1,15]   findWorstP[3,1]  -5.5576555576555567e-02
    x[1,16]   allocateEach[16]  1
    x[1,16]   findWorstP[1,2]  7.5966990173725307e-03
    x[1,16]   findWorstP[1,3]  7.5966990173725307e-03
    x[1,16]   findWorstP[2,1]  -3.6239507074003308e-02
    x[1,16]   findWorstP[3,1]  -2.1115521115521112e-02
    x[1,17]   allocateEach[17]  1
    x[1,17]   findWorstP[1,2]  6.4708137446782749e-02
    x[1,17]   findWorstP[1,3]  6.4708137446782749e-02
    x[1,17]   findWorstP[2,1]  -1.0116146761416089e-01
    x[1,17]   findWorstP[3,1]  -8.3580083580083574e-03
    x[1,18]   allocateEach[18]  1
    x[1,18]   findWorstP[1,2]  6.0581909162446275e-02
    x[1,18]   findWorstP[1,3]  6.0581909162446275e-02
    x[1,18]   findWorstP[2,1]  -9.0802722256811019e-02
    x[1,18]   findWorstP[3,1]  -4.5979545979545976e-02
    x[2,1]    allocateEach[1]  1
    x[2,1]    findWorstP[1,2]  -8.1929339601702955e-02
    x[2,1]    findWorstP[2,1]  3.1033298267459590e-02
    x[2,1]    findWorstP[2,3]  3.1033298267459590e-02
    x[2,1]    findWorstP[3,2]  -3.7695037695037688e-02
    x[2,2]    allocateEach[2]  1
    x[2,2]    findWorstP[1,2]  -5.6717983898629969e-02
    x[2,2]    findWorstP[2,1]  1.0352304686661372e-01
    x[2,2]    findWorstP[2,3]  1.0352304686661372e-01
    x[2,2]    findWorstP[3,2]  -3.3673533673533665e-02
    x[2,3]    allocateEach[3]  1
    x[2,3]    findWorstP[1,2]  -6.8572062710599055e-02
    x[2,3]    findWorstP[2,1]  8.5489168938792173e-02
    x[2,3]    findWorstP[2,3]  8.5489168938792173e-02
    x[2,3]    findWorstP[3,2]  -7.6303576303576287e-02
    x[2,4]    allocateEach[4]  1
    x[2,4]    findWorstP[1,2]  -5.2319364016061007e-02
    x[2,4]    findWorstP[2,1]  0.00531355331801885
    x[2,4]    findWorstP[2,3]  0.00531355331801885
    x[2,4]    findWorstP[3,2]  -0.0673155673155673
    x[2,5]    allocateEach[5]  1
    x[2,5]    findWorstP[1,2]  -2.4999495571114382e-02
    x[2,5]    findWorstP[2,1]  4.1649670452349775e-02
    x[2,5]    findWorstP[2,3]  4.1649670452349775e-02
    x[2,5]    findWorstP[3,2]  -1.0431760431760430e-01
    x[2,6]    allocateEach[6]  1
    x[2,6]    findWorstP[1,2]  -1.0048223401464861e-01
    x[2,6]    findWorstP[2,1]  8.4694819553876224e-03
    x[2,6]    findWorstP[2,3]  8.4694819553876224e-03
    x[2,6]    findWorstP[3,2]  -7.5768075768075760e-02
    x[2,7]    allocateEach[7]  1
    x[2,7]    findWorstP[1,2]  -2.7955448840822419e-02
    x[2,7]    findWorstP[2,1]  3.8558148521866085e-02
    x[2,7]    findWorstP[2,3]  3.8558148521866085e-02
    x[2,7]    findWorstP[3,2]  -6.8922068922068910e-02
    x[2,8]    allocateEach[8]  1
    x[2,8]    findWorstP[1,2]  -9.5770868222997921e-02
    x[2,8]    findWorstP[2,1]  2.3626526975675737e-02
    x[2,8]    findWorstP[2,3]  2.3626526975675737e-02
    x[2,8]    findWorstP[3,2]  -1.6233016233016227e-02
    x[2,9]    allocateEach[9]  1
    x[2,9]    findWorstP[1,2]  -0.0463065716995218
    x[2,9]    findWorstP[2,1]  8.0808948238476577e-02
    x[2,9]    findWorstP[2,3]  8.0808948238476577e-02
    x[2,9]    findWorstP[3,2]  -9.5865095865095857e-03
    x[2,10]   allocateEach[10]  1
    x[2,10]   findWorstP[1,2]  -3.3776558180827664e-02
    x[2,10]   findWorstP[2,1]  3.5241203117284611e-02
    x[2,10]   findWorstP[2,3]  3.5241203117284611e-02
    x[2,10]   findWorstP[3,2]  -6.7095067095067087e-02
    x[2,11]   allocateEach[11]  1
    x[2,11]   findWorstP[1,2]  -4.6417546054357252e-02
    x[2,11]   findWorstP[2,1]  8.6627020760428521e-03
    x[2,11]   findWorstP[2,3]  8.6627020760428521e-03
    x[2,11]   findWorstP[3,2]  -9.7807597807597790e-02
    x[2,12]   allocateEach[12]  1
    x[2,12]   findWorstP[1,2]  -1.0976372550997759e-02
    x[2,12]   findWorstP[2,1]  6.9688056849653290e-02
    x[2,12]   findWorstP[2,3]  6.9688056849653290e-02
    x[2,12]   findWorstP[3,2]  -1.5057015057015054e-02
    x[2,13]   allocateEach[13]  1
    x[2,13]   findWorstP[1,2]  -1.3044530982022153e-02
    x[2,13]   findWorstP[2,1]  6.4095407801799092e-02
    x[2,13]   findWorstP[2,3]  6.4095407801799092e-02
    x[2,13]   findWorstP[3,2]  -8.1942081942081926e-02
    x[2,14]   allocateEach[14]  1
    x[2,14]   findWorstP[1,2]  -5.1865378019006876e-02
    x[2,14]   findWorstP[2,1]  4.6372828957255419e-03
    x[2,14]   findWorstP[2,3]  4.6372828957255419e-03
    x[2,14]   findWorstP[3,2]  -1.2253512253512251e-02
    x[2,15]   allocateEach[15]  1
    x[2,15]   findWorstP[1,2]  -5.5093722886947395e-02
    x[2,15]   findWorstP[2,1]  6.3655295304751072e-02
    x[2,15]   findWorstP[2,3]  6.3655295304751072e-02
    x[2,15]   findWorstP[3,2]  -5.5576555576555567e-02
    x[2,16]   allocateEach[16]  1
    x[2,16]   findWorstP[1,2]  -7.5966990173725307e-03
    x[2,16]   findWorstP[2,1]  3.6239507074003308e-02
    x[2,16]   findWorstP[2,3]  3.6239507074003308e-02
    x[2,16]   findWorstP[3,2]  -2.1115521115521112e-02
    x[2,17]   allocateEach[17]  1
    x[2,17]   findWorstP[1,2]  -6.4708137446782749e-02
    x[2,17]   findWorstP[2,1]  1.0116146761416089e-01
    x[2,17]   findWorstP[2,3]  1.0116146761416089e-01
    x[2,17]   findWorstP[3,2]  -8.3580083580083574e-03
    x[2,18]   allocateEach[18]  1
    x[2,18]   findWorstP[1,2]  -6.0581909162446275e-02
    x[2,18]   findWorstP[2,1]  9.0802722256811019e-02
    x[2,18]   findWorstP[2,3]  9.0802722256811019e-02
    x[2,18]   findWorstP[3,2]  -4.5979545979545976e-02
    x[3,1]    allocateEach[1]  1
    x[3,1]    findWorstP[1,3]  -8.1929339601702955e-02
    x[3,1]    findWorstP[2,3]  -3.1033298267459590e-02
    x[3,1]    findWorstP[3,1]  3.7695037695037688e-02
    x[3,1]    findWorstP[3,2]  3.7695037695037688e-02
    x[3,2]    allocateEach[2]  1
    x[3,2]    findWorstP[1,3]  -5.6717983898629969e-02
    x[3,2]    findWorstP[2,3]  -1.0352304686661372e-01
    x[3,2]    findWorstP[3,1]  3.3673533673533665e-02
    x[3,2]    findWorstP[3,2]  3.3673533673533665e-02
    x[3,3]    allocateEach[3]  1
    x[3,3]    findWorstP[1,3]  -6.8572062710599055e-02
    x[3,3]    findWorstP[2,3]  -8.5489168938792173e-02
    x[3,3]    findWorstP[3,1]  7.6303576303576287e-02
    x[3,3]    findWorstP[3,2]  7.6303576303576287e-02
    x[3,4]    allocateEach[4]  1
    x[3,4]    findWorstP[1,3]  -5.2319364016061007e-02
    x[3,4]    findWorstP[2,3]  -0.00531355331801885
    x[3,4]    findWorstP[3,1]  0.0673155673155673
    x[3,4]    findWorstP[3,2]  0.0673155673155673
    x[3,5]    allocateEach[5]  1
    x[3,5]    findWorstP[1,3]  -2.4999495571114382e-02
    x[3,5]    findWorstP[2,3]  -4.1649670452349775e-02
    x[3,5]    findWorstP[3,1]  1.0431760431760430e-01
    x[3,5]    findWorstP[3,2]  1.0431760431760430e-01
    x[3,6]    allocateEach[6]  1
    x[3,6]    findWorstP[1,3]  -1.0048223401464861e-01
    x[3,6]    findWorstP[2,3]  -8.4694819553876224e-03
    x[3,6]    findWorstP[3,1]  7.5768075768075760e-02
    x[3,6]    findWorstP[3,2]  7.5768075768075760e-02
    x[3,7]    allocateEach[7]  1
    x[3,7]    findWorstP[1,3]  -2.7955448840822419e-02
    x[3,7]    findWorstP[2,3]  -3.8558148521866085e-02
    x[3,7]    findWorstP[3,1]  6.8922068922068910e-02
    x[3,7]    findWorstP[3,2]  6.8922068922068910e-02
    x[3,8]    allocateEach[8]  1
    x[3,8]    findWorstP[1,3]  -9.5770868222997921e-02
    x[3,8]    findWorstP[2,3]  -2.3626526975675737e-02
    x[3,8]    findWorstP[3,1]  1.6233016233016227e-02
    x[3,8]    findWorstP[3,2]  1.6233016233016227e-02
    x[3,9]    allocateEach[9]  1
    x[3,9]    findWorstP[1,3]  -0.0463065716995218
    x[3,9]    findWorstP[2,3]  -8.0808948238476577e-02
    x[3,9]    findWorstP[3,1]  9.5865095865095857e-03
    x[3,9]    findWorstP[3,2]  9.5865095865095857e-03
    x[3,10]   allocateEach[10]  1
    x[3,10]   findWorstP[1,3]  -3.3776558180827664e-02
    x[3,10]   findWorstP[2,3]  -3.5241203117284611e-02
    x[3,10]   findWorstP[3,1]  6.7095067095067087e-02
    x[3,10]   findWorstP[3,2]  6.7095067095067087e-02
    x[3,11]   allocateEach[11]  1
    x[3,11]   findWorstP[1,3]  -4.6417546054357252e-02
    x[3,11]   findWorstP[2,3]  -8.6627020760428521e-03
    x[3,11]   findWorstP[3,1]  9.7807597807597790e-02
    x[3,11]   findWorstP[3,2]  9.7807597807597790e-02
    x[3,12]   allocateEach[12]  1
    x[3,12]   findWorstP[1,3]  -1.0976372550997759e-02
    x[3,12]   findWorstP[2,3]  -6.9688056849653290e-02
    x[3,12]   findWorstP[3,1]  1.5057015057015054e-02
    x[3,12]   findWorstP[3,2]  1.5057015057015054e-02
    x[3,13]   allocateEach[13]  1
    x[3,13]   findWorstP[1,3]  -1.3044530982022153e-02
    x[3,13]   findWorstP[2,3]  -6.4095407801799092e-02
    x[3,13]   findWorstP[3,1]  8.1942081942081926e-02
    x[3,13]   findWorstP[3,2]  8.1942081942081926e-02
    x[3,14]   allocateEach[14]  1
    x[3,14]   findWorstP[1,3]  -5.1865378019006876e-02
    x[3,14]   findWorstP[2,3]  -4.6372828957255419e-03
    x[3,14]   findWorstP[3,1]  1.2253512253512251e-02
    x[3,14]   findWorstP[3,2]  1.2253512253512251e-02
    x[3,15]   allocateEach[15]  1
    x[3,15]   findWorstP[1,3]  -5.5093722886947395e-02
    x[3,15]   findWorstP[2,3]  -6.3655295304751072e-02
    x[3,15]   findWorstP[3,1]  5.5576555576555567e-02
    x[3,15]   findWorstP[3,2]  5.5576555576555567e-02
    x[3,16]   allocateEach[16]  1
    x[3,16]   findWorstP[1,3]  -7.5966990173725307e-03
    x[3,16]   findWorstP[2,3]  -3.6239507074003308e-02
    x[3,16]   findWorstP[3,1]  2.1115521115521112e-02
    x[3,16]   findWorstP[3,2]  2.1115521115521112e-02
    x[3,17]   allocateEach[17]  1
    x[3,17]   findWorstP[1,3]  -6.4708137446782749e-02
    x[3,17]   findWorstP[2,3]  -1.0116146761416089e-01
    x[3,17]   findWorstP[3,1]  8.3580083580083574e-03
    x[3,17]   findWorstP[3,2]  8.3580083580083574e-03
    x[3,18]   allocateEach[18]  1
    x[3,18]   findWorstP[1,3]  -6.0581909162446275e-02
    x[3,18]   findWorstP[2,3]  -9.0802722256811019e-02
    x[3,18]   findWorstP[3,1]  4.5979545979545976e-02
    x[3,18]   findWorstP[3,2]  4.5979545979545976e-02
    MARKER    'MARKER'                 'INTEND'
RHS
    RHS1      allocateEach[1]  1
    RHS1      allocateEach[2]  1
    RHS1      allocateEach[3]  1
    RHS1      allocateEach[4]  1
    RHS1      allocateEach[5]  1
    RHS1      allocateEach[6]  1
    RHS1      allocateEach[7]  1
    RHS1      allocateEach[8]  1
    RHS1      allocateEach[9]  1
    RHS1      allocateEach[10]  1
    RHS1      allocateEach[11]  1
    RHS1      allocateEach[12]  1
    RHS1      allocateEach[13]  1
    RHS1      allocateEach[14]  1
    RHS1      allocateEach[15]  1
    RHS1      allocateEach[16]  1
    RHS1      allocateEach[17]  1
    RHS1      allocateEach[18]  1
    RHS1      allocateAllCash  1
BOUNDS
 UP BND1      z         1
 MI BND1      cashProportion[1]
 UP BND1      cashProportion[1]  1
 MI BND1      cashProportion[2]
 UP BND1      cashProportion[2]  1
 MI BND1      cashProportion[3]
 UP BND1      cashProportion[3]  1
 BV BND1      x[1,1]  
 BV BND1      x[1,2]  
 BV BND1      x[1,3]  
 BV BND1      x[1,4]  
 BV BND1      x[1,5]  
 BV BND1      x[1,6]  
 BV BND1      x[1,7]  
 BV BND1      x[1,8]  
 BV BND1      x[1,9]  
 BV BND1      x[1,10] 
 BV BND1      x[1,11] 
 BV BND1      x[1,12] 
 BV BND1      x[1,13] 
 BV BND1      x[1,14] 
 BV BND1      x[1,15] 
 BV BND1      x[1,16] 
 BV BND1      x[1,17] 
 BV BND1      x[1,18] 
 BV BND1      x[2,1]  
 BV BND1      x[2,2]  
 BV BND1      x[2,3]  
 BV BND1      x[2,4]  
 BV BND1      x[2,5]  
 BV BND1      x[2,6]  
 BV BND1      x[2,7]  
 BV BND1      x[2,8]  
 BV BND1      x[2,9]  
 BV BND1      x[2,10] 
 BV BND1      x[2,11] 
 BV BND1      x[2,12] 
 BV BND1      x[2,13] 
 BV BND1      x[2,14] 
 BV BND1      x[2,15] 
 BV BND1      x[2,16] 
 BV BND1      x[2,17] 
 BV BND1      x[2,18] 
 BV BND1      x[3,1]  
 BV BND1      x[3,2]  
 BV BND1      x[3,3]  
 BV BND1      x[3,4]  
 BV BND1      x[3,5]  
 BV BND1      x[3,6]  
 BV BND1      x[3,7]  
 BV BND1      x[3,8]  
 BV BND1      x[3,9]  
 BV BND1      x[3,10] 
 BV BND1      x[3,11] 
 BV BND1      x[3,12] 
 BV BND1      x[3,13] 
 BV BND1      x[3,14] 
 BV BND1      x[3,15] 
 BV BND1      x[3,16] 
 BV BND1      x[3,17] 
 BV BND1      x[3,18] 
ENDATA
